benchmarks_vrp/CMT12/tsp_classic/CMT12_1.vrp
NAME: CMT12_1
TYPE: CVRP
COMMENT: 819.56 - Cluster Nr.1
DIMENSION: 10
CAPACITY: 200
EDGE_WEIGHT_TYPE: EUC_2D
NODE_COORD_TYPE: TWOD_COORDS
NODE_COORD_SECTION: 
3 8 40
9 8 45
7 0 45
10 40 50
6 2 40
8 10 35
5 5 45
1 10 40
4 5 35
2 0 40
DEPOT_SECTION: 
10
-1
DEMAND_SECTION: 
4 10
9 20
6 20
5 10
8 20
10 0
2 30
3 40
1 30
7 20
EOF
