benchmarks_vrp/CMT12/tsp_classic/CMT12_1.tour
NAME: CMT12_1 solution
TYPE: TOUR
TOUR_SECTION:
10 1 3 8 4 6 2 7 5 9 -1
-1
EOF